networks/zoo_72_504/zoo_72_504.txt
Number of groups: 35
Flow 14: {7 5} {5 6} {6 10} {10 22} {22 58} 
Flow 16: {4 28} {28 29} {29 27} {27 63} 
Flow 21: {29 30} {30 31} {31 32} {32 68} 
Flow 24: {3 28} {28 4} {4 1} {1 37} 
Flow 99: {11 13} {13 14} {14 50} 
Flow 130: {25 19} {19 55} 
Flow 135: {14 15} {15 34} {34 35} 
Flow 138: {34 33} {33 32} {32 31} {31 30} {30 66} 
Flow 139: {31 67} 
Flow 167: {16 35} {35 32} {32 33} {33 69} 
Flow 170: {17 18} {18 23} {23 24} 
Flow 176: {12 22} {22 10} {10 35} {35 36} {36 72} 
Flow 182: {24 9} {9 21} {21 57} 
Flow 184: {36 27} {27 29} {29 65} 
Flow 210: {9 6} {6 5} {5 41} 
Flow 212: {20 21} {21 9} {9 45} 
Flow 262: {7 1} {1 4} {4 40} 
Flow 268: {13 11} {11 47} 
Flow 269: {18 13} {13 12} {12 48} 
Flow 277: {19 20} {20 56} 
Flow 316: {5 7} {7 43} 
Flow 317: {26 19} {19 25} {25 23} {23 18} {18 54} 
Flow 346: {27 36} {36 35} {35 16} {16 52} 
Flow 365: {1 7} {7 8} {8 44} 
Flow 380: {24 23} {23 25} {25 61} 
Flow 381: {21 20} {20 19} {19 26} {26 62} 
Flow 410: {32 35} {35 10} {10 46} 
Flow 413: {33 34} {34 15} {15 51} 
Flow 415: {15 14} {14 13} {13 18} {18 17} {17 53} 
Flow 435: {30 29} {29 28} {28 64} 
Flow 452: {28 3} {3 39} 
Flow 455: {10 6} {6 42} 
Flow 462: {22 12} {12 13} {13 49} 
Flow 472: {6 9} {9 24} {24 60} 
Flow 482: {35 34} {34 70} 
Time taken running everything: 130 seconds
