networks/zoo_72_504/zoo_72_504.sol
<?xml version = "1.0" encoding="UTF-8" standalone="yes"?>
<CPLEXSolution version="1.2">
 <header
   problemName="networks/zoo_72_504/zoo_72_504.lp"
   solutionName="incumbent"
   solutionIndex="-1"
   objectiveValue="35"
   solutionTypeValue="3"
   solutionTypeString="primal"
   solutionStatusValue="101"
   solutionStatusString="integer optimal solution"
   solutionMethodString="mip"
   primalFeasible="1"
   dualFeasible="1"
   MIPNodes="3584"
   MIPIterations="632687"
   writeLevel="3"/>
 <quality
   epInt="1.0000000000000001e-05"
   epRHS="9.9999999999999995e-07"
   maxIntInfeas="0"
   maxPrimalInfeas="0"
   maxX="4"
   maxSlack="10"/>
 <variables>
  <variable name="Y(11,19)" index="697" value="1"/>
  <variable name="Y(14,22)" index="904" value="1"/>
  <variable name="Y(16,27)" index="1045" value="1"/>
  <variable name="Y(20,31)" index="1321" value="1"/>
  <variable name="Y(22,33)" index="1459" value="1"/>
  <variable name="Y(25,4)" index="1634" value="1"/>
  <variable name="Y(26,7)" index="1705" value="1"/>
  <variable name="Y(64,30)" index="4312" value="1"/>
  <variable name="Y(99,14)" index="6676" value="1"/>
  <variable name="Y(122,8)" index="8234" value="1"/>
  <variable name="Y(125,12)" index="8442" value="1"/>
  <variable name="Y(131,20)" index="8858" value="1"/>
  <variable name="Y(140,32)" index="9482" value="1"/>
  <variable name="Y(158,16)" index="10690" value="1"/>
  <variable name="Y(169,1)" index="11424" value="1"/>
  <variable name="Y(169,9)" index="11431" value="1"/>
  <variable name="Y(171,10)" index="11568" value="1"/>
  <variable name="Y(182,21)" index="12327" value="1"/>
  <variable name="Y(212,9)" index="14355" value="1"/>
  <variable name="Y(317,18)" index="21504" value="1"/>
  <variable name="Y(336,36)" index="22814" value="1"/>
  <variable name="Y(368,11)" index="24965" value="1"/>
  <variable name="Y(381,26)" index="25864" value="1"/>
  <variable name="Y(396,25)" index="26883" value="1"/>
  <variable name="Y(397,28)" index="26954" value="1"/>
  <variable name="Y(407,5)" index="27611" value="1"/>
  <variable name="Y(413,15)" index="28029" value="1"/>
  <variable name="Y(415,17)" index="28167" value="1"/>
  <variable name="Y(447,29)" index="30355" value="1"/>
  <variable name="Y(452,3)" index="30669" value="1"/>
  <variable name="Y(455,6)" index="30876" value="1"/>
  <variable name="Y(462,13)" index="31359" value="1"/>
  <variable name="Y(472,24)" index="32050" value="1"/>
  <variable name="Y(482,34)" index="32740" value="1"/>
  <variable name="Y(492,16)" index="33402" value="1"/>
  <variable name="X(1,4,16)" index="34287" value="1"/>
  <variable name="X(1,7,26)" index="34801" value="1"/>
  <variable name="X(1,37,169)" index="35448" value="1"/>
  <variable name="X(3,28,25)" index="35808" value="1"/>
  <variable name="X(3,39,452)" index="36739" value="1"/>
  <variable name="X(4,1,26)" index="36817" value="1"/>
  <variable name="X(4,28,16)" index="37311" value="1"/>
  <variable name="X(4,40,25)" index="37824" value="1"/>
  <variable name="X(5,6,14)" index="38317" value="1"/>
  <variable name="X(5,7,122)" index="38929" value="1"/>
  <variable name="X(5,41,407)" index="39718" value="1"/>
  <variable name="X(6,5,407)" index="40222" value="1"/>
  <variable name="X(6,9,472)" index="40791" value="1"/>
  <variable name="X(6,10,14)" index="40837" value="1"/>
  <variable name="X(6,42,455)" index="41782" value="1"/>
  <variable name="X(7,1,169)" index="42000" value="1"/>
  <variable name="X(7,5,14)" index="42349" value="1"/>
  <variable name="X(7,8,122)" index="42961" value="1"/>
  <variable name="X(7,43,26)" index="43369" value="1"/>
  <variable name="X(8,44,122)" index="43969" value="1"/>
  <variable name="X(9,6,169)" index="44520" value="1"/>
  <variable name="X(9,21,182)" index="45037" value="1"/>
  <variable name="X(9,24,472)" index="45831" value="1"/>
  <variable name="X(9,45,212)" index="46075" value="1"/>
  <variable name="X(10,6,407)" index="46774" value="1"/>
  <variable name="X(10,22,14)" index="46885" value="1"/>
  <variable name="X(10,35,64)" index="47439" value="1"/>
  <variable name="X(10,46,171)" index="48050" value="1"/>
  <variable name="X(11,13,99)" index="48482" value="1"/>
  <variable name="X(11,47,368)" index="49255" value="1"/>
  <variable name="X(12,13,368)" index="49759" value="1"/>
  <variable name="X(12,22,171)" index="50066" value="1"/>
  <variable name="X(12,48,125)" index="50524" value="1"/>
  <variable name="X(13,11,368)" index="51271" value="1"/>
  <variable name="X(13,12,171)" index="51578" value="1"/>
  <variable name="X(13,14,99)" index="52010" value="1"/>
  <variable name="X(13,18,415)" index="52830" value="1"/>
  <variable name="X(13,49,462)" index="53381" value="1"/>
  <variable name="X(14,13,415)" index="53838" value="1"/>
  <variable name="X(14,15,140)" index="54067" value="1"/>
  <variable name="X(14,50,99)" index="54530" value="1"/>
  <variable name="X(15,14,415)" index="55350" value="1"/>
  <variable name="X(15,34,140)" index="55579" value="1"/>
  <variable name="X(15,51,413)" index="56356" value="1"/>
  <variable name="X(16,35,158)" index="56605" value="1"/>
  <variable name="X(16,52,492)" index="57443" value="1"/>
  <variable name="X(17,18,169)" index="57624" value="1"/>
  <variable name="X(17,53,415)" index="58374" value="1"/>
  <variable name="X(18,13,171)" index="58634" value="1"/>
  <variable name="X(18,17,415)" index="59382" value="1"/>
  <variable name="X(18,23,169)" index="59640" value="1"/>
  <variable name="X(18,54,317)" index="60292" value="1"/>
  <variable name="X(19,20,131)" index="60610" value="1"/>
  <variable name="X(19,25,317)" index="61300" value="1"/>
  <variable name="X(19,26,381)" index="61868" value="1"/>
  <variable name="X(19,55,11)" index="62002" value="1"/>
  <variable name="X(20,19,11)" index="62506" value="1"/>
  <variable name="X(20,21,212)" index="63211" value="1"/>
  <variable name="X(20,56,131)" index="63634" value="1"/>
  <variable name="X(21,9,212)" index="64219" value="1"/>
  <variable name="X(21,20,11)" index="64522" value="1"/>
  <variable name="X(21,57,182)" index="65197" value="1"/>
  <variable name="X(22,10,171)" index="65690" value="1"/>
  <variable name="X(22,12,368)" index="66391" value="1"/>
  <variable name="X(22,58,14)" index="66541" value="1"/>
  <variable name="X(23,18,317)" index="67348" value="1"/>
  <variable name="X(23,24,169)" index="67704" value="1"/>
  <variable name="X(23,25,396)" index="68435" value="1"/>
  <variable name="X(24,9,169)" index="68712" value="1"/>
  <variable name="X(24,23,396)" index="69443" value="1"/>
  <variable name="X(24,60,472)" index="70023" value="1"/>
  <variable name="X(25,19,131)" index="70186" value="1"/>
  <variable name="X(25,23,317)" index="70876" value="1"/>
  <variable name="X(25,61,396)" index="71459" value="1"/>
  <variable name="X(26,19,317)" index="71884" value="1"/>
  <variable name="X(26,62,381)" index="72452" value="1"/>
  <variable name="X(27,29,447)" index="73022" value="1"/>
  <variable name="X(27,36,336)" index="73415" value="1"/>
  <variable name="X(27,63,16)" index="73599" value="1"/>
  <variable name="X(28,3,452)" index="74539" value="1"/>
  <variable name="X(28,4,25)" index="74616" value="1"/>
  <variable name="X(28,29,16)" index="75111" value="1"/>
  <variable name="X(28,64,397)" index="75996" value="1"/>
  <variable name="X(29,27,16)" index="76119" value="1"/>
  <variable name="X(29,28,397)" index="77004" value="1"/>
  <variable name="X(29,30,20)" index="77131" value="1"/>
  <variable name="X(29,65,447)" index="78062" value="1"/>
  <variable name="X(30,29,397)" index="78516" value="1"/>
  <variable name="X(30,31,20)" index="78643" value="1"/>
  <variable name="X(30,66,64)" index="79191" value="1"/>
  <variable name="X(31,30,64)" index="79695" value="1"/>
  <variable name="X(31,32,22)" index="80157" value="1"/>
  <variable name="X(31,67,20)" index="80659" value="1"/>
  <variable name="X(32,31,64)" index="81207" value="1"/>
  <variable name="X(32,33,22)" index="81669" value="1"/>
  <variable name="X(32,35,407)" index="82558" value="1"/>
  <variable name="X(32,68,140)" index="82795" value="1"/>
  <variable name="X(33,32,140)" index="83299" value="1"/>
  <variable name="X(33,34,413)" index="84076" value="1"/>
  <variable name="X(33,69,22)" index="84189" value="1"/>
  <variable name="X(34,15,413)" index="85084" value="1"/>
  <variable name="X(34,33,140)" index="85315" value="1"/>
  <variable name="X(34,35,447)" index="86126" value="1"/>
  <variable name="X(34,70,482)" index="86665" value="1"/>
  <variable name="X(35,10,407)" index="87094" value="1"/>
  <variable name="X(35,16,492)" index="87683" value="1"/>
  <variable name="X(35,32,64)" index="87759" value="1"/>
  <variable name="X(35,34,482)" index="88681" value="1"/>
  <variable name="X(35,36,447)" index="89150" value="1"/>
  <variable name="X(36,27,447)" index="89654" value="1"/>
  <variable name="X(36,35,492)" index="90203" value="1"/>
  <variable name="X(36,72,336)" index="90551" value="1"/>
  <variable name="C(11,20)" index="90784" value="1"/>
  <variable name="C(11,19)" index="90785" value="2"/>
  <variable name="C(14,5)" index="90801" value="1"/>
  <variable name="C(14,6)" index="90802" value="2"/>
  <variable name="C(14,10)" index="90803" value="3"/>
  <variable name="C(14,22)" index="90804" value="4"/>
  <variable name="C(16,4)" index="90814" value="1"/>
  <variable name="C(16,28)" index="90815" value="2"/>
  <variable name="C(16,29)" index="90816" value="3"/>
  <variable name="C(16,27)" index="90817" value="4"/>
  <variable name="C(20,30)" index="90834" value="1"/>
  <variable name="C(20,31)" index="90835" value="2"/>
  <variable name="C(22,32)" index="90849" value="1"/>
  <variable name="C(22,33)" index="90850" value="2"/>
  <variable name="C(25,28)" index="90862" value="1"/>
  <variable name="C(25,4)" index="90863" value="2"/>
  <variable name="C(26,1)" index="90867" value="1"/>
  <variable name="C(26,7)" index="90868" value="2"/>
  <variable name="C(64,35)" index="91072" value="1"/>
  <variable name="C(64,32)" index="91073" value="2"/>
  <variable name="C(64,31)" index="91074" value="3"/>
  <variable name="C(64,30)" index="91075" value="4"/>
  <variable name="C(99,13)" index="91261" value="1"/>
  <variable name="C(99,14)" index="91262" value="2"/>
  <variable name="C(122,7)" index="91418" value="1"/>
  <variable name="C(122,8)" index="91419" value="2"/>
  <variable name="C(131,19)" index="91459" value="1"/>
  <variable name="C(131,20)" index="91460" value="2"/>
  <variable name="C(140,15)" index="91512" value="1"/>
  <variable name="C(140,34)" index="91513" value="2"/>
  <variable name="C(140,33)" index="91514" value="3"/>
  <variable name="C(140,32)" index="91515" value="4"/>
  <variable name="C(169,18)" index="91670" value="1"/>
  <variable name="C(169,23)" index="91671" value="2"/>
  <variable name="C(169,24)" index="91672" value="3"/>
  <variable name="C(169,9)" index="91673" value="4"/>
  <variable name="C(169,1)" index="91677" value="1"/>
  <variable name="C(171,13)" index="91688" value="1"/>
  <variable name="C(171,12)" index="91689" value="2"/>
  <variable name="C(171,22)" index="91690" value="3"/>
  <variable name="C(171,10)" index="91691" value="4"/>
  <variable name="C(182,21)" index="91766" value="1"/>
  <variable name="C(212,21)" index="91972" value="1"/>
  <variable name="C(212,9)" index="91973" value="2"/>
  <variable name="C(317,19)" index="92599" value="1"/>
  <variable name="C(317,25)" index="92600" value="2"/>
  <variable name="C(317,23)" index="92601" value="3"/>
  <variable name="C(317,18)" index="92602" value="4"/>
  <variable name="C(336,36)" index="92717" value="1"/>
  <variable name="C(368,12)" index="92908" value="1"/>
  <variable name="C(368,13)" index="92909" value="2"/>
  <variable name="C(368,11)" index="92910" value="3"/>
  <variable name="C(381,26)" index="93016" value="1"/>
  <variable name="C(396,23)" index="93090" value="1"/>
  <variable name="C(396,25)" index="93091" value="2"/>
  <variable name="C(397,29)" index="93093" value="1"/>
  <variable name="C(397,28)" index="93094" value="2"/>
  <variable name="C(407,35)" index="93140" value="1"/>
  <variable name="C(407,10)" index="93141" value="2"/>
  <variable name="C(407,6)" index="93142" value="3"/>
  <variable name="C(407,5)" index="93143" value="4"/>
  <variable name="C(413,34)" index="93170" value="1"/>
  <variable name="C(413,15)" index="93171" value="2"/>
  <variable name="C(415,14)" index="93179" value="1"/>
  <variable name="C(415,13)" index="93180" value="2"/>
  <variable name="C(415,18)" index="93181" value="3"/>
  <variable name="C(415,17)" index="93182" value="4"/>
  <variable name="C(447,35)" index="93348" value="1"/>
  <variable name="C(447,36)" index="93349" value="2"/>
  <variable name="C(447,27)" index="93350" value="3"/>
  <variable name="C(447,29)" index="93351" value="4"/>
  <variable name="C(452,3)" index="93373" value="1"/>
  <variable name="C(472,9)" index="93465" value="1"/>
  <variable name="C(472,24)" index="93466" value="2"/>
  <variable name="C(482,34)" index="93507" value="1"/>
  <variable name="C(492,35)" index="93550" value="1"/>
  <variable name="C(492,16)" index="93551" value="2"/>
 </variables>
</CPLEXSolution>
